unsat
(:binary-propagations  19
 :conflicts            1
 :final-checks         1
 :max-generation       1
 :max-memory           23.83
 :memory               21.10
 :mk-bool-var          526
 :mk-clause            108
 :mk-clause-binary     350
 :num-allocs           8777107
 :num-checks           1
 :propagations         19
 :quant-instantiations 51
 :restarts             1
 :rlimit-count         142008
 :time                 0.02)
